out/bwp_8_7_1_lp.out
9
5 0    5 0
6 0    6 0
7 0    7 0
5 1    6 2
0 0    4 3
0 4    3 8
4 4    7 8
